ITEM = 1..18;
capacity1 = 187;
capacity2 = 181;
capacity3 = 188;
profits = [285, 550, 964, 952, 899, 862, 898, 975, 58, 661, 750, 350, 660, 89, 387, 378, 620, 237];
weights = [10, 26, 55, 75, 39, 85, 96, 62, 57, 46, 47, 47, 84, 52, 24, 37, 51, 77];
